
  12    4
  10   10   10   10

   0   0   0   0   0   4 2 3 4 6 
   4  10  10  10  10   2 8 5 
   9  10  10  10  10   2 7 5 
   5  10  10  10  10   3 11 10 7 
   9  10  10  10  10   3 11 10 9 
   5  10  10  10  10   2 10 7 
   8  10  10  10  10   1 9 
   4  10  10  10  10   1 9 
   8  10  10  10  10   1 12
   1  10  10  10  10   1 12
   6  10  10  10  10   1 12
   0   0   0   0   0   0 
